
(set-logic ALL) 

(declare-datatype MyList ((Nil) (Cons (head Real) (tail MyList)) )) 
(declare-fun l0 () MyList) 
(declare-fun l1 () MyList) 
(declare-fun l2 () MyList) 
(declare-fun l3 () MyList) 
(declare-fun i0 () Real) 
(declare-fun i1 () Real) 
(assert (is-Nil Nil) )
(assert (= l1 Nil) )
(assert (and (is-Cons Nil) (= l0 l1) (= l2 l0)) )
(assert (or (is-Nil l3) (is-Nil Nil) (= l1 Nil)) )
(assert (is-Nil Nil) )
(assert (is-Cons Nil) )
(assert (or (is-Nil Nil) (is-Cons l3) (= l0 l2)) )
(assert (and (is-Nil Nil) (is-Nil Nil) (= l3 Nil)) )
(check-sat)
